(set-logic QF_BV)
(declare-fun _substvar_171_ () Bool)
(declare-fun _substvar_126_ () (_ BitVec 31))
(declare-fun _substvar_131_ () (_ BitVec 31))
(declare-fun _substvar_137_ () (_ BitVec 31))
(declare-fun _substvar_85_ () (_ BitVec 31))
(declare-fun _substvar_215_ () Bool)
(declare-fun _substvar_282_ () (_ BitVec 1))
(declare-fun _substvar_117_ () (_ BitVec 31))
(assert (and true true true true true true true true true true true true true true true true true true true true true true true true true true true true true true true true true true true true true true true true true true true true true true true true true true true true true true true true true true true true true true true true true true true true true true true true true true true true true true true true true true true true true true true true true true true true true true true true true true true true true true true true true true true true true true true true true true true true true true true true true true true true true true true true true true true true true true true true true true true true true true true true true true true true true true true true true true true (ite _substvar_171_ (= _substvar_131_ (_ bv0 31)) (= _substvar_131_ (concat (_ bv0 30) _substvar_282_))) (= _substvar_137_ (concat ((_ extract 29 0) _substvar_131_) (bvxor ((_ extract 30 30) _substvar_131_) ((_ extract 27 27) _substvar_131_)))) (ite _substvar_215_ (= _substvar_117_ (_ bv0 31)) (= _substvar_117_ (concat ((_ extract 29 0) _substvar_137_) (_ bv0 1)))) (= _substvar_126_ (concat (_ bv0 30) (bvxor ((_ extract 30 30) _substvar_117_) ((_ extract 27 27) _substvar_117_)))) (= _substvar_85_ (concat ((_ extract 29 0) _substvar_126_) (_ bv0 1))) true true true (= (= (_ bv0 31) _substvar_85_) false)))
(check-sat)
(exit)
